10	10
5	30	4	4	6	19	9	5	1	71	0	41	3	1	7	88	8	29	2	65
0	56	3	47	8	21	7	19	1	94	9	55	2	84	6	22	4	24	5	11
0	63	1	51	2	73	5	26	6	13	8	70	4	3	7	49	9	30	3	25
5	23	9	76	6	33	3	44	4	39	1	75	2	12	0	96	8	13	7	21
9	62	1	74	2	91	7	65	8	64	6	12	5	51	0	73	3	91	4	63
0	6	1	72	3	56	6	40	4	49	8	92	2	25	9	57	5	34	7	68
9	69	7	96	6	58	1	79	2	7	3	10	4	41	8	67	5	18	0	18
1	72	8	72	5	61	6	78	9	96	0	80	7	80	2	91	3	71	4	97
8	98	1	29	5	40	4	67	0	84	2	39	9	7	6	87	3	38	7	8
4	97	6	1	3	45	7	25	8	30	9	37	1	91	2	21	0	62	5	66
